 vasp.5.3.3 18Dez12 (build Dec 31 2015 11:14:23) complex

 executed on             LinuxIFC date 2017.05.02  21:17:44

 INCAR:
 POTCAR:    PAW_PBE Be 06Sep2000
 POTCAR:    PAW_PBE C 08Apr2002
 POTCAR:    PAW_PBE Be 06Sep2000
   VRHFIN =Be: s2p0

   TITEL  = PAW_PBE Be 06Sep2000
   POMASS =    9.013; ZVAL   =    2.000    mass and valenz
   ENMAX  =  247.543; ENMIN  =  185.658 eV

 POTCAR:    PAW_PBE C 08Apr2002
   VRHFIN =C: s2p2

   TITEL  = PAW_PBE C 08Apr2002
   POMASS =   12.011; ZVAL   =    4.000    mass and valenz
   ENMAX  =  400.000; ENMIN  =  300.000 eV

  PAW_PBE Be 06Sep2000                  :
  PAW_PBE C 08Apr2002                   :

 POSCAR: Be2C
  positions in direct lattice
  velocities in cartesian coordinates
 exchange correlation table for  LEXCH =        8
   RHO(1)=    0.500       N(1)  =     2000
   RHO(2)=  100.500       N(2)  =     4000

 ion  position               nearest neighbor table
   1  0.288  0.635  0.822-   3 1.79   3 1.79   3 1.79   2 1.96   2 1.96   2 1.96
   2  0.621  0.302  0.883-   3 1.79   3 1.79   3 1.79   1 1.96   1 1.96   1 1.96
   3  0.955  0.969  0.852-   2 1.79   1 1.79   1 1.79   2 1.79   2 1.79   1 1.79

  LATTYP: Found a hexagonal cell.
 ALAT       =     2.9900000000
 C/A-ratio  =     5.0167224080

  Lattice vectors:

 A1 = (   2.5894159573,  -1.4950000000,   0.0000000000)
 A2 = (   0.0000000000,   2.9900000000,   0.0000000000)
 A3 = (   0.0000000000,   0.0000000000,  15.0000000000)

Analysis of symmetry for initial positions (statically):
 Subroutine PRICEL returns:
 Original cell was already a primitive cell.

 Routine SETGRP: Setting up the symmetry group for a
 hexagonal supercell.

 Subroutine GETGRP returns: Found  2 space group operations
 (whereof  1 operations were pure point group operations)
 out of a pool of 24 trial point group operations.

The static configuration has the point symmetry C_1 .
 The point group associated with its full space group is C_2 .

Analysis of symmetry for dynamics (positions and initial velocities):
 Subroutine PRICEL returns:
 Original cell was already a primitive cell.

 Routine SETGRP: Setting up the symmetry group for a
 hexagonal supercell.

 Subroutine GETGRP returns: Found  2 space group operations
 (whereof  1 operations were pure point group operations)
 out of a pool of 24 trial point group operations.

The dynamic configuration has the point symmetry C_1 .
 The point group associated with its full space group is C_2 .

Analysis of magnetic symmetry:

 Subroutine MAGSYM returns: Found  2 space group operations
 (whereof  1 operations were pure point group operations)
 out of a pool of  2 trial space group operations
 (whereof  1 operations were pure point group operations)
 and found also     1 'primitive' translations

The magnetic configuration has the point symmetry C_1 .
 The point group associated with its full space group is C_2 .

 irot  :   1
 isymop:   1   0   0
           0   1   0
           0   0   1

 gtrans:     0.0000000     0.0000000     0.0000000

 ptrans:     0.0000000     0.0000000     0.0000000
 rotmap:
 (   1->   1)  (   2->   2)  (   3->   3)

 irot  :   2
 isymop:   0   1   0
           1   0   0
           0   0  -1

 gtrans:     0.9860133     0.0139867     0.7049266

 ptrans:     0.0000000     0.0000000     0.0000000
 rotmap:
 (   1->   2)  (   2->   1)  (   3->   3)

 KPOINTS: k along high symmetry lines
  interpolating k-points between supplied coordinates
  k-points in reciprocal lattice
Space group operators:
 irot       det(A)        alpha          n_x          n_y          n_z        tau_x        tau_y        tau_z
    1     1.000000     0.000000     1.000000     0.000000     0.000000     0.000000     0.000000     0.000000
    2     1.000000   180.000000     0.866025     0.500000     0.000000     0.986013     0.013987     0.704927

 I would recommend the setting:
   dimension x,y,z NGX =    20 NGY =   20 NGZ =  100
 SYSTEM =  Be2C
 POSCAR =  Be2C

 Startparameter for this run:
   NWRITE =      2    write-flag & timer
   PREC   = accura    normal or accurate (medium, high low for compatibility)
   ISTART =      0    job   : 0-new  1-cont  2-samecut
   ICHARG =     11    charge: 1-file 2-atom 10-const
   ISPIN  =      2    spin polarized calculation?
   LNONCOLLINEAR =      F non collinear calculations
   LSORBIT =      F    spin-orbit coupling
   INIWAV =      1    electr: 0-lowe 1-rand  2-diag
   LASPH  =      F    aspherical Exc in radial PAW
   METAGGA=      F    non-selfconsistent MetaGGA calc.

 Electronic Relaxation 1
   ENCUT  =  420.0 eV  30.87 Ry    5.56 a.u.   5.00  5.00 25.07*2*pi/ulx,y,z
   ENINI  =  420.0     initial cutoff
   ENAUG  =  644.9 eV  augmentation charge cutoff
   NELM   =     60;   NELMIN=  2; NELMDL=  0     # of ELM steps
   EDIFF  = 0.1E-03   stopping-criterion for ELM
   LREAL  =      F    real-space projection
   NLSPLINE    = F    spline interpolate recip. space projectors
   LCOMPAT=      F    compatible to vasp.4.4
   GGA_COMPAT  = T    GGA compatible to vasp.4.4-vasp.4.6
   LMAXPAW     = -100 max onsite density
   LMAXMIX     =    2 max onsite mixed and CHGCAR
   VOSKOWN=      0    Vosko Wilk Nusair interpolation
   ROPT   =    0.00000   0.00000
 Ionic relaxation
   EDIFFG = -.1E-02   stopping-criterion for IOM
   NSW    =      0    number of steps for IOM
   NBLOCK =      1;   KBLOCK =      1    inner block; outer block
   IBRION =     -1    ionic relax: 0-MD 1-quasi-New 2-CG
   NFREE  =      0    steps in history (QN), initial steepest desc. (CG)
   ISIF   =      2    stress and relaxation
   IWAVPR =     10    prediction:  0-non 1-charg 2-wave 3-comb
   ISYM   =      2    0-nonsym 1-usesym 2-fastsym
   LCORR  =      T    Harris-Foulkes like correction to forces

   POTIM  = 0.5000    time-step for ionic-motion
   TEIN   =    0.0    initial temperature
   TEBEG  =    0.0;   TEEND  =   0.0 temperature during run
   SMASS  =  -3.00    Nose mass-parameter (am)
   estimated Nose-frequenzy (Omega)   =  0.10E-29 period in steps =****** mass=  -0.204E-27a.u.
   SCALEE = 1.0000    scale energy and forces
   NPACO  =    256;   APACO  = 16.0  distance and # of slots for P.C.
   PSTRESS=    0.0 pullay stress

  Mass of Ions in am
   POMASS =   9.01 12.01
  Ionic Valenz
   ZVAL   =   2.00  4.00
  Atomic Wigner-Seitz radii
  virtual crystal weights
   VCA    =   1.00  1.00
   NELECT =       8.0000    total number of electrons
   NUPDOWN=      -1.0000    fix difference up-down

 DOS related values:
   EMIN   =  10.00;   EMAX   =-10.00  energy-range for DOS
   EFERMI =   0.00
   ISMEAR =     0;   SIGMA  =   0.10  broadening in eV -4-tet -1-fermi 0-gaus

 Electronic relaxation 2 (details)
   IALGO  =     48    algorithm
   LDIAG  =      T    sub-space diagonalisation (order eigenvalues)
   LSUBROT=      T    optimize rotation matrix (better conditioning)
   TURBO    =      0    0=normal 1=particle mesh
   IRESTART =      0    0=no restart 2=restart with 2 vectors
   NREBOOT  =      0    no. of reboots
   NMIN     =      0    reboot dimension
   EREF     =   0.00    reference energy to select bands
   IMIX   =      4    mixing-type and parameters
     AMIX     =   0.40;   BMIX     =  1.00
     AMIX_MAG =   1.60;   BMIX_MAG =  1.00
     AMIN     =   0.10
     WC   =   100.;   INIMIX=   1;  MIXPRE=   1;  MAXMIX= -45

 Intra band minimization:
   WEIMIN = 0.0000     energy-eigenvalue tresh-hold
   EBREAK =  0.21E-05  absolut break condition
   DEPER  =   0.30     relativ break condition

   TIME   =   0.40     timestep for ELM

  volume/ion in A,a.u.               =      38.71       261.24
  Fermi-wavevector in a.u.,A,eV,Ry     =   0.671094  1.268184  6.127619  0.450367
  Thomas-Fermi vector in A             =   1.746810

 Write flags
   LWAVE  =      F    write WAVECAR
   LCHARG =      F    write CHGCAR
   LVTOT  =      F    write LOCPOT, total local potential
   LVHAR  =      F    write LOCPOT, Hartree potential only
   LELF   =      F    write electronic localiz. function (ELF)
   LORBIT =      0    0 simple, 1 ext, 2 COOP (PROOUT)

 Dipole corrections
   LMONO  =      F    monopole corrections only (constant potential shift)
   LDIPOL =      F    correct potential (dipole corrections)
   IDIPOL =      0    1-x, 2-y, 3-z, 4-all directions
   EPSILON=  1.0000000 bulk dielectric constant

 Exchange correlation treatment:
   GGA     =    --    GGA type
   VOSKOWN=      0    Vosko Wilk Nusair interpolation
   LHFCALC =     F    Hartree Fock is set to
   LHFONE  =     F    Hartree Fock one center treatment
   AEXX    =    0.0000 exact exchange contribution

 Linear response parameters
   LEPSILON=     F    determine dielectric tensor
   LRPA    =     F    only Hartree local field effects (RPA)
   LNABLA  =     F    use nabla operator in PAW spheres
   LVEL    =     F    velocity operator in full k-point grid
   LINTERFAST=   F  fast interpolation
   KINTER  =     0    interpolate to denser k-point grid
   CSHIFT  =0.1000    complex shift for real part using Kramers Kronig
   OMEGAMAX=  -1.0    maximum frequency
   DEG_THRESHOLD= 0.2000000E-02 threshold for treating states as degnerate
   RTIME   =    0.100 relaxation time in fs

 Orbital magnetization related:
   ORBITALMAG=     F  switch on orbital magnetization
   LCHIMAG   =     F  perturbation theory with respect to B field
   DQ        =  0.001000  dq finite difference perturbation B field

 Static calculation
 charge density and potential remain constant during run
 spin polarized calculation
 RMM-DIIS sequential band-by-band
 perform sub-space diagonalisation
    before iterative eigenvector-optimisation
 no mixing
 using additional bands            8
 reciprocal scheme for non local part
 use partial core corrections
 calculate Harris-corrections to forces
   (improved forces if not selfconsistent)
 use gradient corrections
 WARNING: stress and forces are not correct
  (second derivative of E(xc) not defined)
 use of overlap-Matrix (Vanderbilt PP)
 Gauss-broadening in eV      SIGMA  =   0.10

  energy-cutoff  :      420.00
  volume of cell :      116.14
      direct lattice vectors                 reciprocal lattice vectors
     2.589415957 -1.495000000  0.000000000     0.386187471  0.000000000  0.000000000
     0.000000000  2.990000000  0.000000000     0.193093736  0.334448161  0.000000000
     0.000000000  0.000000000 15.000000000     0.000000000  0.000000000  0.066666667

  length of vectors
     2.990000000  2.990000000 15.000000000     0.386187471  0.386187471  0.066666667

 k-points in units of 2pi/SCALE and weight: k along high symmetry lines
   0.00000000  0.00000000  0.00000000       0.016
   0.00964503  0.00556856  0.00000000       0.016
   0.01929006  0.01113712  0.00000000       0.016
   0.02893510  0.01670569  0.00000000       0.016
   0.03858013  0.02227425  0.00000000       0.016
   0.04822516  0.02784281  0.00000000       0.016
   0.05787019  0.03341137  0.00000000       0.016
   0.06751522  0.03897993  0.00000000       0.016
   0.07716026  0.04454849  0.00000000       0.016
   0.08680529  0.05011706  0.00000000       0.016
   0.09645032  0.05568562  0.00000000       0.016
   0.10609535  0.06125418  0.00000000       0.016
   0.11574039  0.06682274  0.00000000       0.016
[...]
   0.19305512  0.02227425  0.00000000       0.016
   0.19306477  0.01670569  0.00000000       0.016
   0.19307443  0.01113712  0.00000000       0.016
   0.19308408  0.00556856  0.00000000       0.016
   0.19309374  0.00000000  0.00000000       0.016
   0.19309374  0.00000000  0.00000000       0.016
   0.18343905  0.00000000  0.00000000       0.016
   0.17378436  0.00000000  0.00000000       0.016
   0.16412968  0.00000000  0.00000000       0.016
   0.15447499  0.00000000  0.00000000       0.016
   0.14482030  0.00000000  0.00000000       0.016
   0.13516561  0.00000000  0.00000000       0.016
   0.12551093  0.00000000  0.00000000       0.016
   0.11585624  0.00000000  0.00000000       0.016
   0.10620155  0.00000000  0.00000000       0.016
   0.09654687  0.00000000  0.00000000       0.016
   0.08689218  0.00000000  0.00000000       0.016
   0.07723749  0.00000000  0.00000000       0.016
   0.06758281  0.00000000  0.00000000       0.016
   0.05792812  0.00000000  0.00000000       0.016
   0.04827343  0.00000000  0.00000000       0.016
   0.03861875  0.00000000  0.00000000       0.016
   0.02896406  0.00000000  0.00000000       0.016
   0.01930937  0.00000000  0.00000000       0.016
   0.00965469  0.00000000  0.00000000       0.016
   0.00000000  0.00000000  0.00000000       0.016

 k-points in reciprocal lattice and weights: k along high symmetry lines
   0.00000000  0.00000000  0.00000000       0.016
   0.01665000  0.01665000  0.00000000       0.016
   0.03330000  0.03330000  0.00000000       0.016
   0.04995000  0.04995000  0.00000000       0.016
   0.06660000  0.06660000  0.00000000       0.016
   0.08325000  0.08325000  0.00000000       0.016
   0.09990000  0.09990000  0.00000000       0.016
   0.11655000  0.11655000  0.00000000       0.016
   0.13320000  0.13320000  0.00000000       0.016
   0.14985000  0.14985000  0.00000000       0.016
   0.16650000  0.16650000  0.00000000       0.016
   0.18315000  0.18315000  0.00000000       0.016
   0.19980000  0.19980000  0.00000000       0.016
   0.21645000  0.21645000  0.00000000       0.016
   0.23310000  0.23310000  0.00000000       0.016
   0.24975000  0.24975000  0.00000000       0.016
   0.26640000  0.26640000  0.00000000       0.016
   0.28305000  0.28305000  0.00000000       0.016
   0.29970000  0.29970000  0.00000000       0.016
   0.31635000  0.31635000  0.00000000       0.016
   0.33300000  0.33300000  0.00000000       0.016
   0.33300000  0.33300000  0.00000000       0.016
   0.34135000  0.31635000  0.00000000       0.016
   0.34970000  0.29970000  0.00000000       0.016
   0.35805000  0.28305000  0.00000000       0.016
   0.36640000  0.26640000  0.00000000       0.016
   0.37475000  0.24975000  0.00000000       0.016
   0.38310000  0.23310000  0.00000000       0.016
   0.39145000  0.21645000  0.00000000       0.016
   0.39980000  0.19980000  0.00000000       0.016
   0.40815000  0.18315000  0.00000000       0.016
   0.41650000  0.16650000  0.00000000       0.016
   0.42485000  0.14985000  0.00000000       0.016
   0.43320000  0.13320000  0.00000000       0.016
   0.44155000  0.11655000  0.00000000       0.016
   0.44990000  0.09990000  0.00000000       0.016
   0.45825000  0.08325000  0.00000000       0.016
   0.46660000  0.06660000  0.00000000       0.016
   0.47495000  0.04995000  0.00000000       0.016
   0.48330000  0.03330000  0.00000000       0.016
   0.49165000  0.01665000  0.00000000       0.016
   0.50000000  0.00000000  0.00000000       0.016
   0.50000000  0.00000000  0.00000000       0.016
   0.47500000  0.00000000  0.00000000       0.016
   0.45000000  0.00000000  0.00000000       0.016
   0.42500000  0.00000000  0.00000000       0.016
   0.40000000  0.00000000  0.00000000       0.016
   0.37500000  0.00000000  0.00000000       0.016
   0.35000000  0.00000000  0.00000000       0.016
   0.32500000  0.00000000  0.00000000       0.016
   0.30000000  0.00000000  0.00000000       0.016
   0.27500000  0.00000000  0.00000000       0.016
   0.25000000  0.00000000  0.00000000       0.016
   0.22500000  0.00000000  0.00000000       0.016
   0.20000000  0.00000000  0.00000000       0.016
   0.17500000  0.00000000  0.00000000       0.016
   0.15000000  0.00000000  0.00000000       0.016
   0.12500000  0.00000000  0.00000000       0.016
   0.10000000  0.00000000  0.00000000       0.016
   0.07500000  0.00000000  0.00000000       0.016
   0.05000000  0.00000000  0.00000000       0.016
   0.02500000  0.00000000  0.00000000       0.016
   0.00000000  0.00000000  0.00000000       0.016

 position of ions in fractional coordinates (direct lattice)
   0.28799216  0.63532270  0.82158324
   0.62133226  0.30198258  0.88334344
   0.95464815  0.96863486  0.85246331

 position of ions in cartesian coordinates  (Angst):
   0.74573150  1.46906659 12.32374864
   1.60888768 -0.02596383 13.25015165
   2.47198115  1.46901924 12.78694971

 k-point  1 :   0.0000 0.0000 0.0000  plane waves:    2199
 k-point  2 :   0.0167 0.0167 0.0000  plane waves:    2203
 k-point  3 :   0.0333 0.0333 0.0000  plane waves:    2219
 k-point  4 :   0.0500 0.0500 0.0000  plane waves:    2237
 k-point  5 :   0.0666 0.0666 0.0000  plane waves:    2245
 k-point  6 :   0.0833 0.0833 0.0000  plane waves:    2253
 k-point  7 :   0.0999 0.0999 0.0000  plane waves:    2269
 k-point  8 :   0.1166 0.1166 0.0000  plane waves:    2261
 k-point  9 :   0.1332 0.1332 0.0000  plane waves:    2265
 k-point 10 :   0.1499 0.1499 0.0000  plane waves:    2259
 k-point 11 :   0.1665 0.1665 0.0000  plane waves:    2275
 k-point 12 :   0.1832 0.1832 0.0000  plane waves:    2273
 k-point 13 :   0.1998 0.1998 0.0000  plane waves:    2279
 k-point 14 :   0.2165 0.2165 0.0000  plane waves:    2285
 k-point 15 :   0.2331 0.2331 0.0000  plane waves:    2285
 k-point 16 :   0.2498 0.2498 0.0000  plane waves:    2287
 k-point 17 :   0.2664 0.2664 0.0000  plane waves:    2293
 k-point 18 :   0.2831 0.2831 0.0000  plane waves:    2311
 k-point 19 :   0.2997 0.2997 0.0000  plane waves:    2305
 k-point 20 :   0.3164 0.3164 0.0000  plane waves:    2297
 k-point 21 :   0.3330 0.3330 0.0000  plane waves:    2283
 k-point 22 :   0.3330 0.3330 0.0000  plane waves:    2283
 k-point 23 :   0.3414 0.3164 0.0000  plane waves:    2299
 k-point 24 :   0.3497 0.2997 0.0000  plane waves:    2295
 k-point 25 :   0.3581 0.2831 0.0000  plane waves:    2291
 k-point 26 :   0.3664 0.2664 0.0000  plane waves:    2301
 k-point 27 :   0.3748 0.2498 0.0000  plane waves:    2301
 k-point 28 :   0.3831 0.2331 0.0000  plane waves:    2293
 k-point 29 :   0.3915 0.2165 0.0000  plane waves:    2299
 k-point 30 :   0.3998 0.1998 0.0000  plane waves:    2295
 k-point 31 :   0.4082 0.1832 0.0000  plane waves:    2291
 k-point 32 :   0.4165 0.1665 0.0000  plane waves:    2283
 k-point 33 :   0.4249 0.1499 0.0000  plane waves:    2283
 k-point 34 :   0.4332 0.1332 0.0000  plane waves:    2267
 k-point 35 :   0.4415 0.1165 0.0000  plane waves:    2271
 k-point 36 :   0.4499 0.0999 0.0000  plane waves:    2273
 k-point 37 :   0.4583 0.0832 0.0000  plane waves:    2265
 k-point 38 :   0.4666 0.0666 0.0000  plane waves:    2273
 k-point 39 :   0.4749 0.0499 0.0000  plane waves:    2273
 k-point 40 :   0.4833 0.0333 0.0000  plane waves:    2271
 k-point 41 :   0.4917 0.0166 0.0000  plane waves:    2273
 k-point 42 :   0.5000 0.0000 0.0000  plane waves:    2264
 k-point 43 :   0.5000 0.0000 0.0000  plane waves:    2264
 k-point 44 :   0.4750 0.0000 0.0000  plane waves:    2272
 k-point 45 :   0.4500 0.0000 0.0000  plane waves:    2274
 k-point 46 :   0.4250 0.0000 0.0000  plane waves:    2262
 k-point 47 :   0.4000 0.0000 0.0000  plane waves:    2246
 k-point 48 :   0.3750 0.0000 0.0000  plane waves:    2256
 k-point 49 :   0.3500 0.0000 0.0000  plane waves:    2258
 k-point 50 :   0.3250 0.0000 0.0000  plane waves:    2253
 k-point 51 :   0.3000 0.0000 0.0000  plane waves:    2249
 k-point 52 :   0.2750 0.0000 0.0000  plane waves:    2249
 k-point 53 :   0.2500 0.0000 0.0000  plane waves:    2241
 k-point 54 :   0.2250 0.0000 0.0000  plane waves:    2245
 k-point 55 :   0.2000 0.0000 0.0000  plane waves:    2237
 k-point 56 :   0.1750 0.0000 0.0000  plane waves:    2245
 k-point 57 :   0.1500 0.0000 0.0000  plane waves:    2239
 k-point 58 :   0.1250 0.0000 0.0000  plane waves:    2243
 k-point 59 :   0.1000 0.0000 0.0000  plane waves:    2239
 k-point 60 :   0.0750 0.0000 0.0000  plane waves:    2239
 k-point 61 :   0.0500 0.0000 0.0000  plane waves:    2221
 k-point 62 :   0.0250 0.0000 0.0000  plane waves:    2201
 k-point 63 :   0.0000 0.0000 0.0000  plane waves:    2199

 maximum and minimum number of plane-waves per node :       588      549

 maximum number of plane-waves:      2311
 maximum index in each direction:
   IXMAX=    4   IYMAX=    4   IZMAX=   25
   IXMIN=   -5   IYMIN=   -5   IZMIN=  -25

 NGX is ok and might be reduce to  20
 NGY is ok and might be reduce to  20
 WARNING: aliasing errors must be expected set NGZ to 102 to avoid them
 aliasing errors are usually negligible using standard VASP settings
 and one can safely disregard these warnings

 parallel 3D FFT for wavefunctions:
    minimum data exchange during FFTs selected (reduces bandwidth)
 parallel 3D FFT for charge:
    minimum data exchange during FFTs selected (reduces bandwidth)

 initial charge density was supplied:
 number of electron       8.0000000 magnetization      -0.0003297
 keeping initial charge density in first step

 Maximum index for augmentation-charges          823 (set IRDMAX)

 First call to EWALD:  gamma=   0.363
 Maximum number of real-space cells 5x 5x 1
 Maximum number of reciprocal cells 2x 2x 7

 FEWALD executed in parallel

----------------------------------------- Iteration    1(   1)  ---------------------------------------

 eigenvalue-minimisations  :  1512
 total energy-change (2. order) : 0.4314339E+02  (-0.1043921E+03)
 number of electron       8.0000000 magnetization      -0.0003297
 augmentation part        8.0000000 magnetization      -0.0003297

 Free energy of the ion-electron system (eV)
  alpha Z        PSCENC =         2.61803475
  Ewald energy   TEWEN  =       508.81847817
  -1/2 Hartree   DENC   =      -694.42904543
  -exchange  EXHF       =         0.00000000
  -V(xc)+E(xc)   XCENC  =        21.25014631
  PAW double counting   =       504.08714497     -503.63677903
  entropy T*S    EENTRO =        -0.00574949
  eigenvalues    EBANDS =         2.34604503
  atomic energy  EATOM  =       202.09511676
  free energy    TOTEN  =        43.14339204 eV

  energy without entropy =       43.14914153  energy(sigma->0) =       43.14626679

[...]

 eigenvalue-minimisations  :  1512
 total energy-change (2. order) :-0.3330003E+02  (-0.3248030E+02)
 number of electron       8.0000000 magnetization      -0.0003297
 augmentation part        8.0000000 magnetization      -0.0003297

[...]

----------------------------------------- Iteration    1(  13)  ---------------------------------------

 eigenvalue-minimisations  :  3131
 total energy-change (2. order) :-0.1493195E-05  (-0.1262533E-05)
 number of electron       8.0000000 magnetization      -0.0003297
 augmentation part        8.0000000 magnetization      -0.0003297

 Free energy of the ion-electron system (eV)
  alpha Z        PSCENC =         2.61803475
  Ewald energy   TEWEN  =       508.81847817
  -1/2 Hartree   DENC   =      -694.42904543
  -exchange  EXHF       =         0.00000000
  -V(xc)+E(xc)   XCENC  =        21.25014631
  PAW double counting   =       504.08714497     -503.63677903
  entropy T*S    EENTRO =        -0.00000000
  eigenvalues    EBANDS =       -56.11003323
  atomic energy  EATOM  =       202.09511676
  free energy    TOTEN  =       -15.30693673 eV

  energy without entropy =      -15.30693673  energy(sigma->0) =      -15.30693673

 average (electrostatic) potential at core
  the test charge radii are     0.9943  0.6991
  (the norm of the test charge is              1.0000)
       1 -40.9094       2 -40.9091       3 -54.8592

 E-fermi :  -1.4287     XC(G=0):  -3.0309     alpha+bet : -3.0548

 spin component 1

 k-point   1 :       0.0000    0.0000    0.0000
  band No.  band energies     occupation
      1     -14.4849      1.00000
      2      -6.1301      1.00000
      3      -1.9394      1.00000
      4      -1.9391      1.00000
      5      -0.3730      0.00000
      6       1.6369      0.00000
      7       2.2658      0.00000
      8       3.5197      0.00000
      9       3.5200      0.00000
     10       4.2153      0.00000
     11       4.2967      0.00000
     12       8.2624      0.00000

[...]

 spin component 2

[...]

 k-point  63 :       0.0000    0.0000    0.0000
  band No.  band energies     occupation
      1     -14.4848      1.00000
      2      -6.1303      1.00000
      3      -1.9392      1.00000
      4      -1.9389      1.00000
      5      -0.3813      0.00000
      6       1.5781      0.00000
      7       1.9973      0.00000
      8       3.5195      0.00000
      9       3.5198      0.00000
     10       4.0614      0.00000
     11       4.1299      0.00000
     12       7.1174      0.00000

 soft charge-density along one line, spin component           1
         0         1         2         3         4         5         6         7         8         9
 total charge-density along one line

 soft charge-density along one line, spin component           2
         0         1         2         3         4         5         6         7         8         9
 total charge-density along one line

------------------------ aborting loop because EDIFF is reached ----------------------------------------

  Grimme's potential added to compensate for missing vdW interactions

  Parameters for Grimme's potential:
         C6(Jnm^6/mol)     R0(A)
   Be       1.610          1.408
   C        1.750          1.452

  VDW_RADIUS =    30.000 A
  VDW_S6 =     0.750 A
  VDW_D =    20.000 A

  Number of pair interactions contributing to vdW energy:    5511
  Estimated vdW energy (eV):  -0.22468

  FORCE on cell =-STRESS in cart. coord.  units (eV):
  Direction    XX          YY          ZZ          XY          YZ          ZX
  Alpha Z     2.61803     2.61803     2.61803
  Ewald     688.09074   688.09225  -867.36451    -0.00132     0.00087    -0.00050
  Hartree   682.23027   682.19192  -665.90427     0.03321     0.21245    -0.12266
  E(xc)     -25.29357   -25.31555   -25.84816     0.01904     0.01744    -0.01007
  Local   -1440.10264 -1441.95066  1461.96894     1.60044    -0.20798     0.12008
  n-local     4.12821     6.53179     3.37600    -0.35242    -0.17967     0.78867
  augment    -0.78173    -0.77255    -0.88940    -0.00794    -0.00488     0.00294
  Kinetic    89.83645    90.53499    93.80804     0.63514     0.08021     0.32637
  Fock        0.00000     0.00000     0.00000     0.00000     0.00000     0.00000
  Total       1.69991     0.33310     1.75147     1.18369    -0.53901     0.31120
  in kB      23.45158     4.59541    24.16291    16.32992    -7.43606     4.29321

 VOLUME and BASIS-vectors are now :
  energy-cutoff  :      420.00
  volume of cell :      116.14
      direct lattice vectors                 reciprocal lattice vectors
     2.589415957 -1.495000000  0.000000000     0.386187471  0.000000000  0.000000000
     0.000000000  2.990000000  0.000000000     0.193093736  0.334448161  0.000000000
     0.000000000  0.000000000 15.000000000     0.000000000  0.000000000  0.066666667

  length of vectors
     2.990000000  2.990000000 15.000000000     0.386187471  0.386187471  0.066666667

 FORCES acting on ions
    electron-ion (+dipol)            ewald-force                    non-local-force                 convergence-correction
   0.756E-01 -.126E+00 0.708E+02   -.913E-03 -.222E-02 -.671E+02   -.338E+00 0.585E+00 -.378E+01   -.213E-02 0.365E-02 -.156E+00
   -.718E-01 0.129E+00 -.708E+02   -.199E-02 -.344E-03 0.671E+02   0.337E+00 -.585E+00 0.378E+01   0.210E-02 -.367E-02 0.156E+00
   -.401E-02 -.230E-02 -.903E-06   0.290E-02 0.256E-02 -.581E-04   0.931E-03 0.538E-03 0.000E+00   0.250E-03 0.915E-04 0.137E-02
   -.236E-03 0.840E-03 -.157E-03   -.147E-14 -.152E-14 -.711E-14   -.243E-03 -.140E-03 0.000E+00   0.212E-03 0.722E-04 0.220E-02

 POSITION                                       TOTAL-FORCE (eV/Angst)
      0.74573      1.46907     12.32375        -0.265784      0.459901     -0.272713
      1.60889     -0.02596     13.25015         0.265394     -0.460126      0.272713
      2.47198      1.46902     12.78695         0.000390      0.000225      0.000000
    total drift:                               -0.000268      0.000772      0.002046

  FREE ENERGIE OF THE ION-ELECTRON SYSTEM (eV)
  free  energy   TOTEN  =       -15.53161301 eV

  energy  without entropy=      -15.53161301  energy(sigma->0) =      -15.53161301